StringID   Type       x          y          demand     ReadyTime  DueDate    ServiceTime
D0         d              59.888    92.310      0.000      0.000     23.983      0.000
S0         f              59.888    92.310      0.000      0.000     23.983      0.000
S1         f              25.350    25.900      0.000      0.000     23.983      0.000
S2         f              20.700    69.350      0.000      0.000     23.983      0.000
C0         c              54.529    81.083      0.087     13.977     14.530      0.033
C1         c              53.361    50.825      0.002     19.730     20.220      0.167
C2         c              11.898    43.143      0.074     18.163     18.650      0.133
C3         c              19.200    -2.844      0.095     18.928     19.430      0.133
C4         c              84.404     0.744      0.080     15.397     15.791      0.100

Q Vehicle fuel tank capacity /122.5200/
C Vehicle load capacity /0.9700/
r fuel consumption rate /0.4483/
g inverse refueling rate /0.0079/
v average Velocity /28.9500/
gv charging speed /125.8000/

--------------------
instance_id /710/
number of clusters /5/
working_startTime (hour) /8.00/
working_endTime (hour) /20.48/
instance_endTime (hour) /23.98/
service_time_type /random/
demand_type /random/
instance_type /RC/
instance x range /[0.0, 100.0]/
instance y range /[0.0, 100.0]/
cs_time_to_depot (hour)/[2.585639679076777,1.568868013826265]/
